1755, 0, 0, 84, 0
1756, 0, 1, 89, 3
1757, 0, 2, 52, 1
1758, 0, 3, 77, 2
1759, 1, 0, 89, 2
1760, 1, 1, 83, 3
1761, 1, 2, 85, 1
1762, 1, 3, 34, 0
1763, 2, 0, 64, 3
1764, 2, 1, 77, 1
1765, 2, 2, 86, 2
1766, 2, 3, 40, 0
1767, 3, 0, 84, 1
1768, 3, 1, 85, 0
1769, 3, 2, 99, 2
1770, 3, 3, 56, 3
